lattice_vector 5.43 0.0000000000000000 0.0000000000000000
lattice_vector 0.0000000000000000 5.43 0.0000000000000000
lattice_vector 0.0000000000000000 0.0000000000000000 5.43
atom 0.0000000000000000 0.0000000000000000 0.0000000000000000 Si
atom 1.3575000000000000 1.3575000000000000 1.3575000000000000 Si
atom 0.0000000000000000 2.7150000000000000 2.7150000000000000 Si
atom 1.3575000000000000 4.0725000000000000 4.0725000000000000 Si
atom 2.7150000000000000 0.0000000000000000 2.7150000000000000 Si
atom 4.0725000000000000 1.3575000000000000 4.0725000000000000 Si
atom 2.7150000000000000 2.7150000000000000 0.0000000000000000 Si
atom 4.0725000000000000 4.0725000000000000 1.3575000000000000 Si
